
************************************************************
 TOWR - Trajectory Optimization for Walking Robots (v1.4)
                © Alexander W. Winkler
           https://github.com/ethz-adrl/towr
************************************************************

0.6000000000000001
0.0
0.2
0
0
0.24
0
0
0
t
-e1
0.21
value fo cmd_return -> t -e1 0.21
next line
0.21
0.19
0.0
0.21
-0.19
0.0
-0.21
0.19
0.0
-0.21
-0.19
0.0
0.1
ee start pos x -> 0.21
ee start pos y -> 0.19
ee start pos z -> 0
ee start pos x -> 0.21
ee start pos y -> -0.19
ee start pos z -> 0
ee start pos x -> -0.21
ee start pos y -> 0.19
ee start pos z -> 0
ee start pos x -> -0.21
ee start pos y -> -0.19
ee start pos z -> 0
start pos x -> 0
start pos y -> 0
start pos z -> 0.24
goal pos x -> 0.6
goal pos y -> 0
goal pos z -> 0.2
ee start pos x -> 0.21
ee start pos y -> 0.19
ee start pos z -> 0
ee start pos x -> 0.21
ee start pos y -> -0.19
ee start pos z -> 0
ee start pos x -> -0.21
ee start pos y -> 0.19
ee start pos z -> 0
ee start pos x -> -0.21
ee start pos y -> -0.19
ee start pos z -> 0
SOLVER RUN TIME : 15

******************************************************************************
This program contains Ipopt, a library for large-scale nonlinear optimization.
 Ipopt is released as open source code under the Eclipse Public License (EPL).
         For more information visit http://projects.coin-or.org/Ipopt
******************************************************************************

This is Ipopt version 3.11.9, running with linear solver mumps.
NOTE: Other linear solvers might be more efficient (see Ipopt documentation).

Number of nonzeros in equality constraint Jacobian...:    11557
Number of nonzeros in inequality constraint Jacobian.:    20605
Number of nonzeros in Lagrangian Hessian.............:        0

Total number of variables............................:     1005
                     variables with only lower bounds:        0
                variables with lower and upper bounds:        0
                     variables with only upper bounds:        0
Total number of equality constraints.................:      706
Total number of inequality constraints...............:     1024
        inequality constraints with only lower bounds:      112
   inequality constraints with lower and upper bounds:      816
        inequality constraints with only upper bounds:       96

iter    objective    inf_pr   inf_du lg(mu)  ||d||  lg(rg) alpha_du alpha_pr  ls
   0  0.0000000e+00 9.71e+00 1.00e+00   0.0 0.00e+00    -  0.00e+00 0.00e+00   0
   1  0.0000000e+00 7.30e+00 1.01e+01  -0.5 4.38e+00    -  3.65e-01 2.48e-01f  1
   2  0.0000000e+00 6.07e+00 1.22e+02   0.4 1.02e+01    -  9.90e-01 1.69e-01f  1
   3  0.0000000e+00 3.57e-01 1.40e+02   0.3 5.25e+00    -  6.10e-01 9.75e-01f  1
   4  0.0000000e+00 5.63e-03 8.69e+00   0.2 7.37e-01    -  9.92e-01 1.00e+00f  1
   5  0.0000000e+00 3.80e-06 1.36e+00  -5.8 7.30e-02    -  9.83e-01 1.00e+00h  1
   6  0.0000000e+00 1.00e-10 1.20e-02  -7.6 3.17e-04    -  9.90e-01 1.00e+00h  1
   7  0.0000000e+00 3.22e-13 1.20e-04  -9.6 2.63e-04    -  9.90e-01 1.00e+00h  1

Number of Iterations....: 7

                                   (scaled)                 (unscaled)
Objective...............:   0.0000000000000000e+00    0.0000000000000000e+00
Dual infeasibility......:   1.1985810880673646e-04    1.1985810880673646e-04
Constraint violation....:   3.2152058793144533e-13    3.2152058793144533e-13
Complementarity.........:   3.4538120275190575e-06    3.4538120275190575e-06
Overall NLP error.......:   1.1985810880673646e-04    1.1985810880673646e-04


Number of objective function evaluations             = 8
Number of objective gradient evaluations             = 8
Number of equality constraint evaluations            = 8
Number of inequality constraint evaluations          = 8
Number of equality constraint Jacobian evaluations   = 8
Number of inequality constraint Jacobian evaluations = 8
Number of Lagrangian Hessian evaluations             = 0
Total CPU secs in IPOPT (w/o function evaluations)   =      0.316
Total CPU secs in NLP function evaluations           =      0.447

EXIT: Optimal Solution Found.
status -> 0

************************************************************
    IFOPT - Interface to Nonlinear Optimizers (v2.0)
                © Alexander W. Winkler
           https://github.com/ethz-adrl/ifopt
************************************************************
Legend:
c - number of variables, constraints or cost terms
i - indices of this set in overall problem
v - number of [violated variable- or constraint-bounds] or [cost term value]

                                   c             i             v 
variable-sets:
   base-lin                       306        0....305[0m           0[0m
   base-ang                       306      306....611[0m           0[0m
   ee-motion_0                     35      612....646[0m           0[0m
   ee-motion_1                     35      647....681[0m           0[0m
   ee-motion_2                     35      682....716[0m           0[0m
   ee-motion_3                     35      717....751[0m           0[0m
   ee-force_0                      72      752....823[0m           0[0m
   ee-force_1                      72      824....895[0m           0[0m
   ee-force_2                      72      896....967[0m           0[0m
   ee-force_3                      72      968...1039[0m           0[0m

constraint-sets:
   terrain-ee-motion_0             13        0.....12[0m           0[0m
   terrain-ee-motion_1             13       13.....25[0m           0[0m
   terrain-ee-motion_2             13       26.....38[0m           0[0m
   terrain-ee-motion_3             13       39.....51[0m           0[0m
   dynamic                        312       52....363[0m           0[0m
   splineacc-base-lin             147      364....510[0m           0[0m
   splineacc-base-ang             147      511....657[0m           0[0m
   rangeofmotion-0                192      658....849[0m           0[0m
   rangeofmotion-1                192      850...1041[0m           0[0m
   rangeofmotion-2                192     1042...1233[0m           0[0m
   rangeofmotion-3                192     1234...1425[0m           0[0m
   force-ee-force_0                60     1426...1485[0m           0[0m
   force-ee-force_1                60     1486...1545[0m           0[0m
   force-ee-force_2                60     1546...1605[0m           0[0m
   force-ee-force_3                60     1606...1665[0m           0[0m
   swing-ee-motion_0               16     1666...1681[0m           0[0m
   swing-ee-motion_1               16     1682...1697[0m           0[0m
   swing-ee-motion_2               16     1698...1713[0m           0[0m
   swing-ee-motion_3               16     1714...1729[0m           0[0m

cost-terms:


************************************************************
 TOWR - Trajectory Optimization for Walking Robots (v1.4)
                © Alexander W. Winkler
           https://github.com/ethz-adrl/towr
************************************************************

1.135379464285714
0.10672433035714277
0.2
0.377487
-0.008783
0.233762
-0.033013
-0.0249396
-0.0234904
t
-e1
0.592286
value fo cmd_return -> t -e1 0.592286
next line
0.592286
0.145462
0
0.644191
-0.195404
0
0.142212
0.179156
0
0.181342
-0.163872
0
3.757
s_vel
0.122743
0.1
-t
3.757
ee start pos x -> 0.592286
ee start pos y -> 0.145462
ee start pos z -> 0
ee start pos x -> 0.644191
ee start pos y -> -0.195404
ee start pos z -> 0
ee start pos x -> 0.142212
ee start pos y -> 0.179156
ee start pos z -> 0
ee start pos x -> 0.181342
ee start pos y -> -0.163872
ee start pos z -> 0
start pos x -> 0.377487
start pos y -> -0.008783
start pos z -> 0.233762
goal pos x -> 1.13538
goal pos y -> 0.106724
goal pos z -> 0.2
ee start pos x -> 0.592286
ee start pos y -> 0.145462
ee start pos z -> 0
ee start pos x -> 0.644191
ee start pos y -> -0.195404
ee start pos z -> 0
ee start pos x -> 0.142212
ee start pos y -> 0.179156
ee start pos z -> 0
ee start pos x -> 0.181342
ee start pos y -> -0.163872
ee start pos z -> 0
SOLVER RUN TIME : 15

******************************************************************************
This program contains Ipopt, a library for large-scale nonlinear optimization.
 Ipopt is released as open source code under the Eclipse Public License (EPL).
         For more information visit http://projects.coin-or.org/Ipopt
******************************************************************************

This is Ipopt version 3.11.9, running with linear solver mumps.
NOTE: Other linear solvers might be more efficient (see Ipopt documentation).

Number of nonzeros in equality constraint Jacobian...:    11557
Number of nonzeros in inequality constraint Jacobian.:    20605
Number of nonzeros in Lagrangian Hessian.............:        0

Total number of variables............................:     1005
                     variables with only lower bounds:        0
                variables with lower and upper bounds:        0
                     variables with only upper bounds:        0
Total number of equality constraints.................:      706
Total number of inequality constraints...............:     1024
        inequality constraints with only lower bounds:      112
   inequality constraints with lower and upper bounds:      816
        inequality constraints with only upper bounds:       96

iter    objective    inf_pr   inf_du lg(mu)  ||d||  lg(rg) alpha_du alpha_pr  ls
   0  0.0000000e+00 9.71e+00 1.00e+00   0.0 0.00e+00    -  0.00e+00 0.00e+00   0
   1  0.0000000e+00 8.63e+00 1.59e+01  -0.3 4.62e+00    -  3.83e-01 1.11e-01f  1
   2  0.0000000e+00 4.94e+00 5.66e+01   0.2 5.92e+00    -  9.92e-01 4.27e-01f  1
   3  0.0000000e+00 1.99e-01 9.43e+01   0.3 4.54e+00    -  7.42e-01 1.00e+00f  1
   4  0.0000000e+00 1.59e-03 2.08e+00  -0.3 3.30e-01    -  1.00e+00 1.00e+00f  1
   5  0.0000000e+00 4.43e-07 2.75e-01  -6.3 9.78e-03    -  9.88e-01 1.00e+00h  1
   6  0.0000000e+00 9.70e-07 9.04e-05  -4.1 8.81e-03    -  1.00e+00 1.00e+00h  1

Number of Iterations....: 6

                                   (scaled)                 (unscaled)
Objective...............:   0.0000000000000000e+00    0.0000000000000000e+00
Dual infeasibility......:   9.0393975384145143e-05    9.0393975384145143e-05
Constraint violation....:   9.7021677954167718e-07    9.7021677954167718e-07
Complementarity.........:   9.8916195311365401e-05    9.8916195311365401e-05
Overall NLP error.......:   9.8916195311365401e-05    9.8916195311365401e-05


Number of objective function evaluations             = 7
Number of objective gradient evaluations             = 7
Number of equality constraint evaluations            = 7
Number of inequality constraint evaluations          = 7
Number of equality constraint Jacobian evaluations   = 7
Number of inequality constraint Jacobian evaluations = 7
Number of Lagrangian Hessian evaluations             = 0
Total CPU secs in IPOPT (w/o function evaluations)   =      0.291
Total CPU secs in NLP function evaluations           =      0.393

EXIT: Optimal Solution Found.
status -> 0

************************************************************
    IFOPT - Interface to Nonlinear Optimizers (v2.0)
                © Alexander W. Winkler
           https://github.com/ethz-adrl/ifopt
************************************************************
Legend:
c - number of variables, constraints or cost terms
i - indices of this set in overall problem
v - number of [violated variable- or constraint-bounds] or [cost term value]

                                   c             i             v 
variable-sets:
   base-lin                       306        0....305[0m           0[0m
   base-ang                       306      306....611[0m           0[0m
   ee-motion_0                     35      612....646[0m           0[0m
   ee-motion_1                     35      647....681[0m           0[0m
   ee-motion_2                     35      682....716[0m           0[0m
   ee-motion_3                     35      717....751[0m           0[0m
   ee-force_0                      72      752....823[0m           0[0m
   ee-force_1                      72      824....895[0m           0[0m
   ee-force_2                      72      896....967[0m           0[0m
   ee-force_3                      72      968...1039[0m           0[0m

constraint-sets:
   terrain-ee-motion_0             13        0.....12[0m           0[0m
   terrain-ee-motion_1             13       13.....25[0m           0[0m
   terrain-ee-motion_2             13       26.....38[0m           0[0m
   terrain-ee-motion_3             13       39.....51[0m           0[0m
   dynamic                        312       52....363[0m           0[0m
   splineacc-base-lin             147      364....510[0m           0[0m
   splineacc-base-ang             147      511....657[0m           0[0m
   rangeofmotion-0                192      658....849[0m           0[0m
   rangeofmotion-1                192      850...1041[0m           0[0m
   rangeofmotion-2                192     1042...1233[0m           0[0m
   rangeofmotion-3                192     1234...1425[0m           0[0m
   force-ee-force_0                60     1426...1485[0m           0[0m
   force-ee-force_1                60     1486...1545[0m           0[0m
   force-ee-force_2                60     1546...1605[0m           0[0m
   force-ee-force_3                60     1606...1665[0m           0[0m
   swing-ee-motion_0               16     1666...1681[0m           0[0m
   swing-ee-motion_1               16     1682...1697[0m           0[0m
   swing-ee-motion_2               16     1698...1713[0m           0[0m
   swing-ee-motion_3               16     1714...1729[0m           0[0m

cost-terms:


************************************************************
 TOWR - Trajectory Optimization for Walking Robots (v1.4)
                © Alexander W. Winkler
           https://github.com/ethz-adrl/towr
************************************************************

1.7594866071428572
1.0118582589285714
0.2
0.712843
0.0530342
0.238498
0.00225953
0.0105379
-0.00238254
t
-e1
0.921071
value fo cmd_return -> t -e1 0.921071
next line
0.921071
0.185785
0
0.974536
-0.145052
0
0.459818
0.212882
0
0.516315
-0.117793
0
6.282
s_vel
0.113742
0.1
-t
6.282
ee start pos x -> 0.921071
ee start pos y -> 0.185785
ee start pos z -> 0
ee start pos x -> 0.974536
ee start pos y -> -0.145052
ee start pos z -> 0
ee start pos x -> 0.459818
ee start pos y -> 0.212882
ee start pos z -> 0
ee start pos x -> 0.516315
ee start pos y -> -0.117793
ee start pos z -> 0
start pos x -> 0.712843
start pos y -> 0.0530342
start pos z -> 0.238498
goal pos x -> 1.75949
goal pos y -> 1.01186
goal pos z -> 0.2
ee start pos x -> 0.921071
ee start pos y -> 0.185785
ee start pos z -> 0
ee start pos x -> 0.974536
ee start pos y -> -0.145052
ee start pos z -> 0
ee start pos x -> 0.459818
ee start pos y -> 0.212882
ee start pos z -> 0
ee start pos x -> 0.516315
ee start pos y -> -0.117793
ee start pos z -> 0
SOLVER RUN TIME : 15

******************************************************************************
This program contains Ipopt, a library for large-scale nonlinear optimization.
 Ipopt is released as open source code under the Eclipse Public License (EPL).
         For more information visit http://projects.coin-or.org/Ipopt
******************************************************************************

This is Ipopt version 3.11.9, running with linear solver mumps.
NOTE: Other linear solvers might be more efficient (see Ipopt documentation).

Number of nonzeros in equality constraint Jacobian...:    11557
Number of nonzeros in inequality constraint Jacobian.:    20605
Number of nonzeros in Lagrangian Hessian.............:        0

Total number of variables............................:     1005
                     variables with only lower bounds:        0
                variables with lower and upper bounds:        0
                     variables with only upper bounds:        0
Total number of equality constraints.................:      706
Total number of inequality constraints...............:     1024
        inequality constraints with only lower bounds:      112
   inequality constraints with lower and upper bounds:      816
        inequality constraints with only upper bounds:       96

iter    objective    inf_pr   inf_du lg(mu)  ||d||  lg(rg) alpha_du alpha_pr  ls
   0  0.0000000e+00 1.26e+01 1.00e+00   0.0 0.00e+00    -  0.00e+00 0.00e+00   0
   1  0.0000000e+00 1.23e+01 1.04e+00  -4.6 5.32e+00    -  1.64e-02 2.33e-02h  1
   2  0.0000000e+00 1.22e+01 1.58e+00  -4.6 4.84e+00    -  1.75e-02 8.27e-03h  1
   3  0.0000000e+00 1.17e+01 1.59e+00  -4.6 4.72e+00    -  1.92e-02 3.93e-02h  1
   4  0.0000000e+00 1.12e+01 2.16e+00  -4.6 4.47e+00    -  3.38e-02 3.94e-02h  1
   5  0.0000000e+00 1.08e+01 2.81e+00  -4.6 4.28e+00    -  3.27e-02 4.08e-02h  1
   6  0.0000000e+00 9.89e+00 5.22e+00  -4.6 4.13e+00    -  4.78e-02 8.12e-02h  1
   7  0.0000000e+00 9.37e+00 5.59e+00  -4.7 3.82e+00    -  1.19e-01 5.28e-02h  1
   8  0.0000000e+00 8.88e+00 6.83e+00  -4.7 3.79e+00    -  7.62e-02 5.26e-02h  1
   9  0.0000000e+00 8.87e+00 6.85e+00  -4.7 3.75e+00    -  2.79e-02 6.72e-04h  1
iter    objective    inf_pr   inf_du lg(mu)  ||d||  lg(rg) alpha_du alpha_pr  ls
  10  0.0000000e+00 8.69e+00 7.29e+00  -4.8 3.79e+00    -  6.29e-04 2.08e-02h  1
  11  0.0000000e+00 8.47e+00 7.82e+00  -4.8 3.70e+00    -  2.87e-02 2.50e-02h  1
  12  0.0000000e+00 8.35e+00 8.13e+00  -4.8 3.55e+00    -  6.02e-03 1.47e-02h  1
  13  0.0000000e+00 7.94e+00 1.64e+01  -0.9 4.57e+00    -  1.72e-02 4.84e-02f  1
  14  0.0000000e+00 7.70e+00 2.16e+01  -4.8 3.55e+00    -  2.47e-01 3.10e-02h  1
  15  0.0000000e+00 7.65e+00 3.56e+01  -4.9 3.66e+00    -  9.54e-02 6.16e-03h  1
  16  0.0000000e+00 6.96e+00 4.76e+01  -1.0 3.98e+00    -  1.56e-01 8.94e-02f  1
  17  0.0000000e+00 6.40e+00 1.10e+02  -0.9 4.06e+00    -  2.52e-01 8.17e-02f  1
  18  0.0000000e+00 5.22e+00 1.29e+02  -0.4 4.70e+00    -  2.47e-01 1.83e-01f  1
  19  0.0000000e+00 4.60e+00 3.10e+02  -0.6 3.86e+00    -  3.78e-01 1.18e-01h  1
iter    objective    inf_pr   inf_du lg(mu)  ||d||  lg(rg) alpha_du alpha_pr  ls
  20  0.0000000e+00 3.89e+00 4.70e+02  -0.3 4.92e+00    -  2.84e-01 1.54e-01h  1
  21  0.0000000e+00 2.61e+00 3.60e+02  -1.7 1.48e+01    -  2.62e-01 3.29e-01h  1
  22  0.0000000e+00 1.41e+00 2.05e+02  -0.9 2.17e+01    -  4.43e-01 4.59e-01h  1
  23  0.0000000e+00 5.73e-01 1.40e+02  -0.9 1.36e+01    -  4.31e-01 5.95e-01h  1
  24  0.0000000e+00 3.41e-01 2.76e+01  -1.4 6.50e+00    -  6.94e-01 4.04e-01h  1
  25  0.0000000e+00 5.03e-02 1.15e+01  -1.5 2.99e-01    -  9.95e-01 8.53e-01h  1
  26  0.0000000e+00 7.32e-05 2.66e-01  -2.5 6.40e-02    -  1.00e+00 1.00e+00h  1
  27  0.0000000e+00 2.28e-08 2.36e-01  -4.1 4.47e-04    -  9.96e-01 1.00e+00h  1
  28  0.0000000e+00 1.74e-10 3.52e-05  -5.7 3.83e-05    -  1.00e+00 1.00e+00h  1

Number of Iterations....: 28

                                   (scaled)                 (unscaled)
Objective...............:   0.0000000000000000e+00    0.0000000000000000e+00
Dual infeasibility......:   3.5236762001995471e-05    3.5236762001995471e-05
Constraint violation....:   1.7438422927895658e-10    1.7438422927895658e-10
Complementarity.........:   2.5345825156121999e-06    2.5345825156121999e-06
Overall NLP error.......:   3.5236762001995471e-05    3.5236762001995471e-05


Number of objective function evaluations             = 29
Number of objective gradient evaluations             = 29
Number of equality constraint evaluations            = 29
Number of inequality constraint evaluations          = 29
Number of equality constraint Jacobian evaluations   = 29
Number of inequality constraint Jacobian evaluations = 29
Number of Lagrangian Hessian evaluations             = 0
Total CPU secs in IPOPT (w/o function evaluations)   =      0.563
Total CPU secs in NLP function evaluations           =      1.637

EXIT: Optimal Solution Found.
status -> 0

************************************************************
    IFOPT - Interface to Nonlinear Optimizers (v2.0)
                © Alexander W. Winkler
           https://github.com/ethz-adrl/ifopt
************************************************************
Legend:
c - number of variables, constraints or cost terms
i - indices of this set in overall problem
v - number of [violated variable- or constraint-bounds] or [cost term value]

                                   c             i             v 
variable-sets:
   base-lin                       306        0....305[0m           0[0m
   base-ang                       306      306....611[0m           0[0m
   ee-motion_0                     35      612....646[0m           0[0m
   ee-motion_1                     35      647....681[0m           0[0m
   ee-motion_2                     35      682....716[0m           0[0m
   ee-motion_3                     35      717....751[0m           0[0m
   ee-force_0                      72      752....823[0m           0[0m
   ee-force_1                      72      824....895[0m           0[0m
   ee-force_2                      72      896....967[0m           0[0m
   ee-force_3                      72      968...1039[0m           0[0m

constraint-sets:
   terrain-ee-motion_0             13        0.....12[0m           0[0m
   terrain-ee-motion_1             13       13.....25[0m           0[0m
   terrain-ee-motion_2             13       26.....38[0m           0[0m
   terrain-ee-motion_3             13       39.....51[0m           0[0m
   dynamic                        312       52....363[0m           0[0m
   splineacc-base-lin             147      364....510[0m           0[0m
   splineacc-base-ang             147      511....657[0m           0[0m
   rangeofmotion-0                192      658....849[0m           0[0m
   rangeofmotion-1                192      850...1041[0m           0[0m
   rangeofmotion-2                192     1042...1233[0m           0[0m
   rangeofmotion-3                192     1234...1425[0m           0[0m
   force-ee-force_0                60     1426...1485[0m           0[0m
   force-ee-force_1                60     1486...1545[0m           0[0m
   force-ee-force_2                60     1546...1605[0m           0[0m
   force-ee-force_3                60     1606...1665[0m           0[0m
   swing-ee-motion_0               16     1666...1681[0m           0[0m
   swing-ee-motion_1               16     1682...1697[0m           0[0m
   swing-ee-motion_2               16     1698...1713[0m           0[0m
   swing-ee-motion_3               16     1714...1729[0m           0[0m

cost-terms:


************************************************************
 TOWR - Trajectory Optimization for Walking Robots (v1.4)
                © Alexander W. Winkler
           https://github.com/ethz-adrl/towr
************************************************************

2.1353794642857142
1.1067243303571428
0.2
1.15757
0.467794
0.188675
-0.030994
0.00235187
0.233124
t
-e1
1.31768
value fo cmd_return -> t -e1 1.31768
next line
1.31768
0.646925
0
1.48129
0.434045
0
0.882329
0.521399
0
1.01054
0.302726
0
8.813
s_vel
0.174984
0.1
-t
8.813
ee start pos x -> 1.31768
ee start pos y -> 0.646925
ee start pos z -> 0
ee start pos x -> 1.48129
ee start pos y -> 0.434045
ee start pos z -> 0
ee start pos x -> 0.882329
ee start pos y -> 0.521399
ee start pos z -> 0
ee start pos x -> 1.01054
ee start pos y -> 0.302726
ee start pos z -> 0
start pos x -> 1.15757
start pos y -> 0.467794
start pos z -> 0.188675
goal pos x -> 2.13538
goal pos y -> 1.10672
goal pos z -> 0.2
ee start pos x -> 1.31768
ee start pos y -> 0.646925
ee start pos z -> 0
ee start pos x -> 1.48129
ee start pos y -> 0.434045
ee start pos z -> 0
ee start pos x -> 0.882329
ee start pos y -> 0.521399
ee start pos z -> 0
ee start pos x -> 1.01054
ee start pos y -> 0.302726
ee start pos z -> 0
SOLVER RUN TIME : 15

******************************************************************************
This program contains Ipopt, a library for large-scale nonlinear optimization.
 Ipopt is released as open source code under the Eclipse Public License (EPL).
         For more information visit http://projects.coin-or.org/Ipopt
******************************************************************************

This is Ipopt version 3.11.9, running with linear solver mumps.
NOTE: Other linear solvers might be more efficient (see Ipopt documentation).

Number of nonzeros in equality constraint Jacobian...:    11557
Number of nonzeros in inequality constraint Jacobian.:    20605
Number of nonzeros in Lagrangian Hessian.............:        0

Total number of variables............................:     1005
                     variables with only lower bounds:        0
                variables with lower and upper bounds:        0
                     variables with only upper bounds:        0
Total number of equality constraints.................:      706
Total number of inequality constraints...............:     1024
        inequality constraints with only lower bounds:      112
   inequality constraints with lower and upper bounds:      816
        inequality constraints with only upper bounds:       96

iter    objective    inf_pr   inf_du lg(mu)  ||d||  lg(rg) alpha_du alpha_pr  ls
   0  0.0000000e+00 1.17e+01 1.00e+00   0.0 0.00e+00    -  0.00e+00 0.00e+00   0
   1  0.0000000e+00 1.13e+01 2.65e+01  -0.1 6.78e+00    -  1.01e-01 4.05e-02f  1
   2  0.0000000e+00 1.02e+01 6.23e+02   0.4 7.66e+00    -  4.85e-01 9.76e-02f  1
   3  0.0000000e+00 6.13e+00 1.42e+03   0.7 8.28e+00    -  9.98e-01 3.97e-01f  1
   4  0.0000000e+00 5.95e-01 2.34e+02   0.6 4.65e+00    -  9.87e-01 9.03e-01h  1
   5  0.0000000e+00 2.51e-03 1.48e+01   0.3 8.82e-01    -  9.93e-01 1.00e+00f  1
   6  0.0000000e+00 2.38e-06 3.03e+00  -1.6 9.03e-03    -  9.98e-01 1.00e+00h  1
   7  0.0000000e+00 1.15e-07 1.17e-03  -3.2 1.31e-03    -  1.00e+00 1.00e+00h  1
   8  0.0000000e+00 1.13e-10 3.22e-04  -9.2 5.91e-08    -  9.99e-01 1.00e+00h  1

Number of Iterations....: 8

                                   (scaled)                 (unscaled)
Objective...............:   0.0000000000000000e+00    0.0000000000000000e+00
Dual infeasibility......:   3.2233061493791110e-04    3.2233061493791110e-04
Constraint violation....:   7.4239836500566980e-11    1.1303569191767338e-10
Complementarity.........:   1.7803842437844654e-06    1.7803842437844654e-06
Overall NLP error.......:   3.2233061493791110e-04    3.2233061493791110e-04


Number of objective function evaluations             = 9
Number of objective gradient evaluations             = 9
Number of equality constraint evaluations            = 9
Number of inequality constraint evaluations          = 9
Number of equality constraint Jacobian evaluations   = 9
Number of inequality constraint Jacobian evaluations = 9
Number of Lagrangian Hessian evaluations             = 0
Total CPU secs in IPOPT (w/o function evaluations)   =      0.340
Total CPU secs in NLP function evaluations           =      0.545

EXIT: Optimal Solution Found.
status -> 0

************************************************************
    IFOPT - Interface to Nonlinear Optimizers (v2.0)
                © Alexander W. Winkler
           https://github.com/ethz-adrl/ifopt
************************************************************
Legend:
c - number of variables, constraints or cost terms
i - indices of this set in overall problem
v - number of [violated variable- or constraint-bounds] or [cost term value]

                                   c             i             v 
variable-sets:
   base-lin                       306        0....305[0m           0[0m
   base-ang                       306      306....611[0m           0[0m
   ee-motion_0                     35      612....646[0m           0[0m
   ee-motion_1                     35      647....681[0m           0[0m
   ee-motion_2                     35      682....716[0m           0[0m
   ee-motion_3                     35      717....751[0m           0[0m
   ee-force_0                      72      752....823[0m           0[0m
   ee-force_1                      72      824....895[0m           0[0m
   ee-force_2                      72      896....967[0m           0[0m
   ee-force_3                      72      968...1039[0m           0[0m

constraint-sets:
   terrain-ee-motion_0             13        0.....12[0m           0[0m
   terrain-ee-motion_1             13       13.....25[0m           0[0m
   terrain-ee-motion_2             13       26.....38[0m           0[0m
   terrain-ee-motion_3             13       39.....51[0m           0[0m
   dynamic                        312       52....363[0m           0[0m
   splineacc-base-lin             147      364....510[0m           0[0m
   splineacc-base-ang             147      511....657[0m           0[0m
   rangeofmotion-0                192      658....849[0m           0[0m
   rangeofmotion-1                192      850...1041[0m           0[0m
   rangeofmotion-2                192     1042...1233[0m           0[0m
   rangeofmotion-3                192     1234...1425[0m           0[0m
   force-ee-force_0                60     1426...1485[0m           0[0m
   force-ee-force_1                60     1486...1545[0m           0[0m
   force-ee-force_2                60     1546...1605[0m           0[0m
   force-ee-force_3                60     1606...1665[0m           0[0m
   swing-ee-motion_0               16     1666...1681[0m           0[0m
   swing-ee-motion_1               16     1682...1697[0m           0[0m
   swing-ee-motion_2               16     1698...1713[0m           0[0m
   swing-ee-motion_3               16     1714...1729[0m           0[0m

cost-terms:


************************************************************
 TOWR - Trajectory Optimization for Walking Robots (v1.4)
                © Alexander W. Winkler
           https://github.com/ethz-adrl/towr
************************************************************

4.885156249999999
4.1689453125
0.2
1.58475
0.795016
0.235047
-0.0274743
0.0223512
0.209883
t
-e1
1.76899
value fo cmd_return -> t -e1 1.76899
next line
1.76899
0.955289
0
1.90061
0.673816
0
1.279
0.880343
0
1.42239
0.616355
0
11.335
s_vel
0.202881
0.1
-t
11.335
ee start pos x -> 1.76899
ee start pos y -> 0.955289
ee start pos z -> 0
ee start pos x -> 1.90061
ee start pos y -> 0.673816
ee start pos z -> 0
ee start pos x -> 1.279
ee start pos y -> 0.880343
ee start pos z -> 0
ee start pos x -> 1.42239
ee start pos y -> 0.616355
ee start pos z -> 0
start pos x -> 1.58475
start pos y -> 0.795016
start pos z -> 0.235047
goal pos x -> 4.88516
goal pos y -> 4.16895
goal pos z -> 0.2
ee start pos x -> 1.76899
ee start pos y -> 0.955289
ee start pos z -> 0
ee start pos x -> 1.90061
ee start pos y -> 0.673816
ee start pos z -> 0
ee start pos x -> 1.279
ee start pos y -> 0.880343
ee start pos z -> 0
ee start pos x -> 1.42239
ee start pos y -> 0.616355
ee start pos z -> 0
SOLVER RUN TIME : 15

******************************************************************************
This program contains Ipopt, a library for large-scale nonlinear optimization.
 Ipopt is released as open source code under the Eclipse Public License (EPL).
         For more information visit http://projects.coin-or.org/Ipopt
******************************************************************************

This is Ipopt version 3.11.9, running with linear solver mumps.
NOTE: Other linear solvers might be more efficient (see Ipopt documentation).

Number of nonzeros in equality constraint Jacobian...:    11557
Number of nonzeros in inequality constraint Jacobian.:    20605
Number of nonzeros in Lagrangian Hessian.............:        0

Total number of variables............................:     1005
                     variables with only lower bounds:        0
                variables with lower and upper bounds:        0
                     variables with only upper bounds:        0
Total number of equality constraints.................:      706
Total number of inequality constraints...............:     1024
        inequality constraints with only lower bounds:      112
   inequality constraints with lower and upper bounds:      816
        inequality constraints with only upper bounds:       96

iter    objective    inf_pr   inf_du lg(mu)  ||d||  lg(rg) alpha_du alpha_pr  ls
   0  0.0000000e+00 4.05e+01 1.00e+00   0.0 0.00e+00    -  0.00e+00 0.00e+00   0
   1  0.0000000e+00 4.03e+01 9.96e-01  -4.6 7.91e+00    -  5.35e-03 5.47e-03h  1
   2  0.0000000e+00 4.02e+01 8.70e+00  -0.2 4.25e+01    -  3.79e-03 1.75e-03f  1
   3  0.0000000e+00 4.00e+01 1.13e+01  -0.5 3.52e+01    -  5.06e-03 4.11e-03f  1
   4  0.0000000e+00 3.98e+01 3.75e+01  -0.1 4.79e+01    -  1.08e-02 4.68e-03f  1
   5  0.0000000e+00 3.96e+01 1.25e+02   0.0 5.04e+01    -  2.99e-02 7.08e-03f  1
   6  0.0000000e+00 3.92e+01 1.97e+02  -0.1 5.75e+01    -  2.10e-02 8.81e-03f  1
   7  0.0000000e+00 3.85e+01 2.38e+02  -0.1 6.16e+01    -  2.59e-02 1.93e-02f  1
   8  0.0000000e+00 3.84e+01 4.33e+02  -0.3 4.49e+01    -  1.54e-02 1.07e-03h  1
